c number of pigeons = 13 ; number of holes = 12
p cnf 156 1885
1 2 3 4 5 6 7 8 9 10 11 12 0
13 14 15 16 17 18 19 20 21 22 23 24 0
25 26 27 28 29 30 31 32 33 34 35 36 0
37 38 39 40 41 42 43 44 45 46 47 48 0
49 50 51 52 53 54 55 56 57 58 59 60 0
61 62 63 64 65 66 67 68 69 70 71 72 0
73 74 75 76 77 78 79 80 81 82 83 84 0
85 86 87 88 89 90 91 92 93 94 95 96 0
97 98 99 100 101 102 103 104 105 106 107 108 0
109 110 111 112 113 114 115 116 117 118 119 120 0
121 122 123 124 125 126 127 128 129 130 131 132 0
133 134 135 136 137 138 139 140 141 142 143 144 0
145 146 147 148 149 150 151 152 153 154 155 156 0
-1 -13 0
-1 -25 0
-1 -37 0
-1 -49 0
-1 -61 0
-1 -73 0
-1 -85 0
-1 -97 0
-1 -109 0
-1 -121 0
-1 -133 0
-1 -145 0
-13 -1 0
-13 -25 0
-13 -37 0
-13 -49 0
-13 -61 0
-13 -73 0
-13 -85 0
-13 -97 0
-13 -109 0
-13 -121 0
-13 -133 0
-13 -145 0
-25 -1 0
-25 -13 0
-25 -37 0
-25 -49 0
-25 -61 0
-25 -73 0
-25 -85 0
-25 -97 0
-25 -109 0
-25 -121 0
-25 -133 0
-25 -145 0
-37 -1 0
-37 -13 0
-37 -25 0
-37 -49 0
-37 -61 0
-37 -73 0
-37 -85 0
-37 -97 0
-37 -109 0
-37 -121 0
-37 -133 0
-37 -145 0
-49 -1 0
-49 -13 0
-49 -25 0
-49 -37 0
-49 -61 0
-49 -73 0
-49 -85 0
-49 -97 0
-49 -109 0
-49 -121 0
-49 -133 0
-49 -145 0
-61 -1 0
-61 -13 0
-61 -25 0
-61 -37 0
-61 -49 0
-61 -73 0
-61 -85 0
-61 -97 0
-61 -109 0
-61 -121 0
-61 -133 0
-61 -145 0
-73 -1 0
-73 -13 0
-73 -25 0
-73 -37 0
-73 -49 0
-73 -61 0
-73 -85 0
-73 -97 0
-73 -109 0
-73 -121 0
-73 -133 0
-73 -145 0
-85 -1 0
-85 -13 0
-85 -25 0
-85 -37 0
-85 -49 0
-85 -61 0
-85 -73 0
-85 -97 0
-85 -109 0
-85 -121 0
-85 -133 0
-85 -145 0
-97 -1 0
-97 -13 0
-97 -25 0
-97 -37 0
-97 -49 0
-97 -61 0
-97 -73 0
-97 -85 0
-97 -109 0
-97 -121 0
-97 -133 0
-97 -145 0
-109 -1 0
-109 -13 0
-109 -25 0
-109 -37 0
-109 -49 0
-109 -61 0
-109 -73 0
-109 -85 0
-109 -97 0
-109 -121 0
-109 -133 0
-109 -145 0
-121 -1 0
-121 -13 0
-121 -25 0
-121 -37 0
-121 -49 0
-121 -61 0
-121 -73 0
-121 -85 0
-121 -97 0
-121 -109 0
-121 -133 0
-121 -145 0
-133 -1 0
-133 -13 0
-133 -25 0
-133 -37 0
-133 -49 0
-133 -61 0
-133 -73 0
-133 -85 0
-133 -97 0
-133 -109 0
-133 -121 0
-133 -145 0
-145 -1 0
-145 -13 0
-145 -25 0
-145 -37 0
-145 -49 0
-145 -61 0
-145 -73 0
-145 -85 0
-145 -97 0
-145 -109 0
-145 -121 0
-145 -133 0
-2 -14 0
-2 -26 0
-2 -38 0
-2 -50 0
-2 -62 0
-2 -74 0
-2 -86 0
-2 -98 0
-2 -110 0
-2 -122 0
-2 -134 0
-2 -146 0
-14 -2 0
-14 -26 0
-14 -38 0
-14 -50 0
-14 -62 0
-14 -74 0
-14 -86 0
-14 -98 0
-14 -110 0
-14 -122 0
-14 -134 0
-14 -146 0
-26 -2 0
-26 -14 0
-26 -38 0
-26 -50 0
-26 -62 0
-26 -74 0
-26 -86 0
-26 -98 0
-26 -110 0
-26 -122 0
-26 -134 0
-26 -146 0
-38 -2 0
-38 -14 0
-38 -26 0
-38 -50 0
-38 -62 0
-38 -74 0
-38 -86 0
-38 -98 0
-38 -110 0
-38 -122 0
-38 -134 0
-38 -146 0
-50 -2 0
-50 -14 0
-50 -26 0
-50 -38 0
-50 -62 0
-50 -74 0
-50 -86 0
-50 -98 0
-50 -110 0
-50 -122 0
-50 -134 0
-50 -146 0
-62 -2 0
-62 -14 0
-62 -26 0
-62 -38 0
-62 -50 0
-62 -74 0
-62 -86 0
-62 -98 0
-62 -110 0
-62 -122 0
-62 -134 0
-62 -146 0
-74 -2 0
-74 -14 0
-74 -26 0
-74 -38 0
-74 -50 0
-74 -62 0
-74 -86 0
-74 -98 0
-74 -110 0
-74 -122 0
-74 -134 0
-74 -146 0
-86 -2 0
-86 -14 0
-86 -26 0
-86 -38 0
-86 -50 0
-86 -62 0
-86 -74 0
-86 -98 0
-86 -110 0
-86 -122 0
-86 -134 0
-86 -146 0
-98 -2 0
-98 -14 0
-98 -26 0
-98 -38 0
-98 -50 0
-98 -62 0
-98 -74 0
-98 -86 0
-98 -110 0
-98 -122 0
-98 -134 0
-98 -146 0
-110 -2 0
-110 -14 0
-110 -26 0
-110 -38 0
-110 -50 0
-110 -62 0
-110 -74 0
-110 -86 0
-110 -98 0
-110 -122 0
-110 -134 0
-110 -146 0
-122 -2 0
-122 -14 0
-122 -26 0
-122 -38 0
-122 -50 0
-122 -62 0
-122 -74 0
-122 -86 0
-122 -98 0
-122 -110 0
-122 -134 0
-122 -146 0
-134 -2 0
-134 -14 0
-134 -26 0
-134 -38 0
-134 -50 0
-134 -62 0
-134 -74 0
-134 -86 0
-134 -98 0
-134 -110 0
-134 -122 0
-134 -146 0
-146 -2 0
-146 -14 0
-146 -26 0
-146 -38 0
-146 -50 0
-146 -62 0
-146 -74 0
-146 -86 0
-146 -98 0
-146 -110 0
-146 -122 0
-146 -134 0
-3 -15 0
-3 -27 0
-3 -39 0
-3 -51 0
-3 -63 0
-3 -75 0
-3 -87 0
-3 -99 0
-3 -111 0
-3 -123 0
-3 -135 0
-3 -147 0
-15 -3 0
-15 -27 0
-15 -39 0
-15 -51 0
-15 -63 0
-15 -75 0
-15 -87 0
-15 -99 0
-15 -111 0
-15 -123 0
-15 -135 0
-15 -147 0
-27 -3 0
-27 -15 0
-27 -39 0
-27 -51 0
-27 -63 0
-27 -75 0
-27 -87 0
-27 -99 0
-27 -111 0
-27 -123 0
-27 -135 0
-27 -147 0
-39 -3 0
-39 -15 0
-39 -27 0
-39 -51 0
-39 -63 0
-39 -75 0
-39 -87 0
-39 -99 0
-39 -111 0
-39 -123 0
-39 -135 0
-39 -147 0
-51 -3 0
-51 -15 0
-51 -27 0
-51 -39 0
-51 -63 0
-51 -75 0
-51 -87 0
-51 -99 0
-51 -111 0
-51 -123 0
-51 -135 0
-51 -147 0
-63 -3 0
-63 -15 0
-63 -27 0
-63 -39 0
-63 -51 0
-63 -75 0
-63 -87 0
-63 -99 0
-63 -111 0
-63 -123 0
-63 -135 0
-63 -147 0
-75 -3 0
-75 -15 0
-75 -27 0
-75 -39 0
-75 -51 0
-75 -63 0
-75 -87 0
-75 -99 0
-75 -111 0
-75 -123 0
-75 -135 0
-75 -147 0
-87 -3 0
-87 -15 0
-87 -27 0
-87 -39 0
-87 -51 0
-87 -63 0
-87 -75 0
-87 -99 0
-87 -111 0
-87 -123 0
-87 -135 0
-87 -147 0
-99 -3 0
-99 -15 0
-99 -27 0
-99 -39 0
-99 -51 0
-99 -63 0
-99 -75 0
-99 -87 0
-99 -111 0
-99 -123 0
-99 -135 0
-99 -147 0
-111 -3 0
-111 -15 0
-111 -27 0
-111 -39 0
-111 -51 0
-111 -63 0
-111 -75 0
-111 -87 0
-111 -99 0
-111 -123 0
-111 -135 0
-111 -147 0
-123 -3 0
-123 -15 0
-123 -27 0
-123 -39 0
-123 -51 0
-123 -63 0
-123 -75 0
-123 -87 0
-123 -99 0
-123 -111 0
-123 -135 0
-123 -147 0
-135 -3 0
-135 -15 0
-135 -27 0
-135 -39 0
-135 -51 0
-135 -63 0
-135 -75 0
-135 -87 0
-135 -99 0
-135 -111 0
-135 -123 0
-135 -147 0
-147 -3 0
-147 -15 0
-147 -27 0
-147 -39 0
-147 -51 0
-147 -63 0
-147 -75 0
-147 -87 0
-147 -99 0
-147 -111 0
-147 -123 0
-147 -135 0
-4 -16 0
-4 -28 0
-4 -40 0
-4 -52 0
-4 -64 0
-4 -76 0
-4 -88 0
-4 -100 0
-4 -112 0
-4 -124 0
-4 -136 0
-4 -148 0
-16 -4 0
-16 -28 0
-16 -40 0
-16 -52 0
-16 -64 0
-16 -76 0
-16 -88 0
-16 -100 0
-16 -112 0
-16 -124 0
-16 -136 0
-16 -148 0
-28 -4 0
-28 -16 0
-28 -40 0
-28 -52 0
-28 -64 0
-28 -76 0
-28 -88 0
-28 -100 0
-28 -112 0
-28 -124 0
-28 -136 0
-28 -148 0
-40 -4 0
-40 -16 0
-40 -28 0
-40 -52 0
-40 -64 0
-40 -76 0
-40 -88 0
-40 -100 0
-40 -112 0
-40 -124 0
-40 -136 0
-40 -148 0
-52 -4 0
-52 -16 0
-52 -28 0
-52 -40 0
-52 -64 0
-52 -76 0
-52 -88 0
-52 -100 0
-52 -112 0
-52 -124 0
-52 -136 0
-52 -148 0
-64 -4 0
-64 -16 0
-64 -28 0
-64 -40 0
-64 -52 0
-64 -76 0
-64 -88 0
-64 -100 0
-64 -112 0
-64 -124 0
-64 -136 0
-64 -148 0
-76 -4 0
-76 -16 0
-76 -28 0
-76 -40 0
-76 -52 0
-76 -64 0
-76 -88 0
-76 -100 0
-76 -112 0
-76 -124 0
-76 -136 0
-76 -148 0
-88 -4 0
-88 -16 0
-88 -28 0
-88 -40 0
-88 -52 0
-88 -64 0
-88 -76 0
-88 -100 0
-88 -112 0
-88 -124 0
-88 -136 0
-88 -148 0
-100 -4 0
-100 -16 0
-100 -28 0
-100 -40 0
-100 -52 0
-100 -64 0
-100 -76 0
-100 -88 0
-100 -112 0
-100 -124 0
-100 -136 0
-100 -148 0
-112 -4 0
-112 -16 0
-112 -28 0
-112 -40 0
-112 -52 0
-112 -64 0
-112 -76 0
-112 -88 0
-112 -100 0
-112 -124 0
-112 -136 0
-112 -148 0
-124 -4 0
-124 -16 0
-124 -28 0
-124 -40 0
-124 -52 0
-124 -64 0
-124 -76 0
-124 -88 0
-124 -100 0
-124 -112 0
-124 -136 0
-124 -148 0
-136 -4 0
-136 -16 0
-136 -28 0
-136 -40 0
-136 -52 0
-136 -64 0
-136 -76 0
-136 -88 0
-136 -100 0
-136 -112 0
-136 -124 0
-136 -148 0
-148 -4 0
-148 -16 0
-148 -28 0
-148 -40 0
-148 -52 0
-148 -64 0
-148 -76 0
-148 -88 0
-148 -100 0
-148 -112 0
-148 -124 0
-148 -136 0
-5 -17 0
-5 -29 0
-5 -41 0
-5 -53 0
-5 -65 0
-5 -77 0
-5 -89 0
-5 -101 0
-5 -113 0
-5 -125 0
-5 -137 0
-5 -149 0
-17 -5 0
-17 -29 0
-17 -41 0
-17 -53 0
-17 -65 0
-17 -77 0
-17 -89 0
-17 -101 0
-17 -113 0
-17 -125 0
-17 -137 0
-17 -149 0
-29 -5 0
-29 -17 0
-29 -41 0
-29 -53 0
-29 -65 0
-29 -77 0
-29 -89 0
-29 -101 0
-29 -113 0
-29 -125 0
-29 -137 0
-29 -149 0
-41 -5 0
-41 -17 0
-41 -29 0
-41 -53 0
-41 -65 0
-41 -77 0
-41 -89 0
-41 -101 0
-41 -113 0
-41 -125 0
-41 -137 0
-41 -149 0
-53 -5 0
-53 -17 0
-53 -29 0
-53 -41 0
-53 -65 0
-53 -77 0
-53 -89 0
-53 -101 0
-53 -113 0
-53 -125 0
-53 -137 0
-53 -149 0
-65 -5 0
-65 -17 0
-65 -29 0
-65 -41 0
-65 -53 0
-65 -77 0
-65 -89 0
-65 -101 0
-65 -113 0
-65 -125 0
-65 -137 0
-65 -149 0
-77 -5 0
-77 -17 0
-77 -29 0
-77 -41 0
-77 -53 0
-77 -65 0
-77 -89 0
-77 -101 0
-77 -113 0
-77 -125 0
-77 -137 0
-77 -149 0
-89 -5 0
-89 -17 0
-89 -29 0
-89 -41 0
-89 -53 0
-89 -65 0
-89 -77 0
-89 -101 0
-89 -113 0
-89 -125 0
-89 -137 0
-89 -149 0
-101 -5 0
-101 -17 0
-101 -29 0
-101 -41 0
-101 -53 0
-101 -65 0
-101 -77 0
-101 -89 0
-101 -113 0
-101 -125 0
-101 -137 0
-101 -149 0
-113 -5 0
-113 -17 0
-113 -29 0
-113 -41 0
-113 -53 0
-113 -65 0
-113 -77 0
-113 -89 0
-113 -101 0
-113 -125 0
-113 -137 0
-113 -149 0
-125 -5 0
-125 -17 0
-125 -29 0
-125 -41 0
-125 -53 0
-125 -65 0
-125 -77 0
-125 -89 0
-125 -101 0
-125 -113 0
-125 -137 0
-125 -149 0
-137 -5 0
-137 -17 0
-137 -29 0
-137 -41 0
-137 -53 0
-137 -65 0
-137 -77 0
-137 -89 0
-137 -101 0
-137 -113 0
-137 -125 0
-137 -149 0
-149 -5 0
-149 -17 0
-149 -29 0
-149 -41 0
-149 -53 0
-149 -65 0
-149 -77 0
-149 -89 0
-149 -101 0
-149 -113 0
-149 -125 0
-149 -137 0
-6 -18 0
-6 -30 0
-6 -42 0
-6 -54 0
-6 -66 0
-6 -78 0
-6 -90 0
-6 -102 0
-6 -114 0
-6 -126 0
-6 -138 0
-6 -150 0
-18 -6 0
-18 -30 0
-18 -42 0
-18 -54 0
-18 -66 0
-18 -78 0
-18 -90 0
-18 -102 0
-18 -114 0
-18 -126 0
-18 -138 0
-18 -150 0
-30 -6 0
-30 -18 0
-30 -42 0
-30 -54 0
-30 -66 0
-30 -78 0
-30 -90 0
-30 -102 0
-30 -114 0
-30 -126 0
-30 -138 0
-30 -150 0
-42 -6 0
-42 -18 0
-42 -30 0
-42 -54 0
-42 -66 0
-42 -78 0
-42 -90 0
-42 -102 0
-42 -114 0
-42 -126 0
-42 -138 0
-42 -150 0
-54 -6 0
-54 -18 0
-54 -30 0
-54 -42 0
-54 -66 0
-54 -78 0
-54 -90 0
-54 -102 0
-54 -114 0
-54 -126 0
-54 -138 0
-54 -150 0
-66 -6 0
-66 -18 0
-66 -30 0
-66 -42 0
-66 -54 0
-66 -78 0
-66 -90 0
-66 -102 0
-66 -114 0
-66 -126 0
-66 -138 0
-66 -150 0
-78 -6 0
-78 -18 0
-78 -30 0
-78 -42 0
-78 -54 0
-78 -66 0
-78 -90 0
-78 -102 0
-78 -114 0
-78 -126 0
-78 -138 0
-78 -150 0
-90 -6 0
-90 -18 0
-90 -30 0
-90 -42 0
-90 -54 0
-90 -66 0
-90 -78 0
-90 -102 0
-90 -114 0
-90 -126 0
-90 -138 0
-90 -150 0
-102 -6 0
-102 -18 0
-102 -30 0
-102 -42 0
-102 -54 0
-102 -66 0
-102 -78 0
-102 -90 0
-102 -114 0
-102 -126 0
-102 -138 0
-102 -150 0
-114 -6 0
-114 -18 0
-114 -30 0
-114 -42 0
-114 -54 0
-114 -66 0
-114 -78 0
-114 -90 0
-114 -102 0
-114 -126 0
-114 -138 0
-114 -150 0
-126 -6 0
-126 -18 0
-126 -30 0
-126 -42 0
-126 -54 0
-126 -66 0
-126 -78 0
-126 -90 0
-126 -102 0
-126 -114 0
-126 -138 0
-126 -150 0
-138 -6 0
-138 -18 0
-138 -30 0
-138 -42 0
-138 -54 0
-138 -66 0
-138 -78 0
-138 -90 0
-138 -102 0
-138 -114 0
-138 -126 0
-138 -150 0
-150 -6 0
-150 -18 0
-150 -30 0
-150 -42 0
-150 -54 0
-150 -66 0
-150 -78 0
-150 -90 0
-150 -102 0
-150 -114 0
-150 -126 0
-150 -138 0
-7 -19 0
-7 -31 0
-7 -43 0
-7 -55 0
-7 -67 0
-7 -79 0
-7 -91 0
-7 -103 0
-7 -115 0
-7 -127 0
-7 -139 0
-7 -151 0
-19 -7 0
-19 -31 0
-19 -43 0
-19 -55 0
-19 -67 0
-19 -79 0
-19 -91 0
-19 -103 0
-19 -115 0
-19 -127 0
-19 -139 0
-19 -151 0
-31 -7 0
-31 -19 0
-31 -43 0
-31 -55 0
-31 -67 0
-31 -79 0
-31 -91 0
-31 -103 0
-31 -115 0
-31 -127 0
-31 -139 0
-31 -151 0
-43 -7 0
-43 -19 0
-43 -31 0
-43 -55 0
-43 -67 0
-43 -79 0
-43 -91 0
-43 -103 0
-43 -115 0
-43 -127 0
-43 -139 0
-43 -151 0
-55 -7 0
-55 -19 0
-55 -31 0
-55 -43 0
-55 -67 0
-55 -79 0
-55 -91 0
-55 -103 0
-55 -115 0
-55 -127 0
-55 -139 0
-55 -151 0
-67 -7 0
-67 -19 0
-67 -31 0
-67 -43 0
-67 -55 0
-67 -79 0
-67 -91 0
-67 -103 0
-67 -115 0
-67 -127 0
-67 -139 0
-67 -151 0
-79 -7 0
-79 -19 0
-79 -31 0
-79 -43 0
-79 -55 0
-79 -67 0
-79 -91 0
-79 -103 0
-79 -115 0
-79 -127 0
-79 -139 0
-79 -151 0
-91 -7 0
-91 -19 0
-91 -31 0
-91 -43 0
-91 -55 0
-91 -67 0
-91 -79 0
-91 -103 0
-91 -115 0
-91 -127 0
-91 -139 0
-91 -151 0
-103 -7 0
-103 -19 0
-103 -31 0
-103 -43 0
-103 -55 0
-103 -67 0
-103 -79 0
-103 -91 0
-103 -115 0
-103 -127 0
-103 -139 0
-103 -151 0
-115 -7 0
-115 -19 0
-115 -31 0
-115 -43 0
-115 -55 0
-115 -67 0
-115 -79 0
-115 -91 0
-115 -103 0
-115 -127 0
-115 -139 0
-115 -151 0
-127 -7 0
-127 -19 0
-127 -31 0
-127 -43 0
-127 -55 0
-127 -67 0
-127 -79 0
-127 -91 0
-127 -103 0
-127 -115 0
-127 -139 0
-127 -151 0
-139 -7 0
-139 -19 0
-139 -31 0
-139 -43 0
-139 -55 0
-139 -67 0
-139 -79 0
-139 -91 0
-139 -103 0
-139 -115 0
-139 -127 0
-139 -151 0
-151 -7 0
-151 -19 0
-151 -31 0
-151 -43 0
-151 -55 0
-151 -67 0
-151 -79 0
-151 -91 0
-151 -103 0
-151 -115 0
-151 -127 0
-151 -139 0
-8 -20 0
-8 -32 0
-8 -44 0
-8 -56 0
-8 -68 0
-8 -80 0
-8 -92 0
-8 -104 0
-8 -116 0
-8 -128 0
-8 -140 0
-8 -152 0
-20 -8 0
-20 -32 0
-20 -44 0
-20 -56 0
-20 -68 0
-20 -80 0
-20 -92 0
-20 -104 0
-20 -116 0
-20 -128 0
-20 -140 0
-20 -152 0
-32 -8 0
-32 -20 0
-32 -44 0
-32 -56 0
-32 -68 0
-32 -80 0
-32 -92 0
-32 -104 0
-32 -116 0
-32 -128 0
-32 -140 0
-32 -152 0
-44 -8 0
-44 -20 0
-44 -32 0
-44 -56 0
-44 -68 0
-44 -80 0
-44 -92 0
-44 -104 0
-44 -116 0
-44 -128 0
-44 -140 0
-44 -152 0
-56 -8 0
-56 -20 0
-56 -32 0
-56 -44 0
-56 -68 0
-56 -80 0
-56 -92 0
-56 -104 0
-56 -116 0
-56 -128 0
-56 -140 0
-56 -152 0
-68 -8 0
-68 -20 0
-68 -32 0
-68 -44 0
-68 -56 0
-68 -80 0
-68 -92 0
-68 -104 0
-68 -116 0
-68 -128 0
-68 -140 0
-68 -152 0
-80 -8 0
-80 -20 0
-80 -32 0
-80 -44 0
-80 -56 0
-80 -68 0
-80 -92 0
-80 -104 0
-80 -116 0
-80 -128 0
-80 -140 0
-80 -152 0
-92 -8 0
-92 -20 0
-92 -32 0
-92 -44 0
-92 -56 0
-92 -68 0
-92 -80 0
-92 -104 0
-92 -116 0
-92 -128 0
-92 -140 0
-92 -152 0
-104 -8 0
-104 -20 0
-104 -32 0
-104 -44 0
-104 -56 0
-104 -68 0
-104 -80 0
-104 -92 0
-104 -116 0
-104 -128 0
-104 -140 0
-104 -152 0
-116 -8 0
-116 -20 0
-116 -32 0
-116 -44 0
-116 -56 0
-116 -68 0
-116 -80 0
-116 -92 0
-116 -104 0
-116 -128 0
-116 -140 0
-116 -152 0
-128 -8 0
-128 -20 0
-128 -32 0
-128 -44 0
-128 -56 0
-128 -68 0
-128 -80 0
-128 -92 0
-128 -104 0
-128 -116 0
-128 -140 0
-128 -152 0
-140 -8 0
-140 -20 0
-140 -32 0
-140 -44 0
-140 -56 0
-140 -68 0
-140 -80 0
-140 -92 0
-140 -104 0
-140 -116 0
-140 -128 0
-140 -152 0
-152 -8 0
-152 -20 0
-152 -32 0
-152 -44 0
-152 -56 0
-152 -68 0
-152 -80 0
-152 -92 0
-152 -104 0
-152 -116 0
-152 -128 0
-152 -140 0
-9 -21 0
-9 -33 0
-9 -45 0
-9 -57 0
-9 -69 0
-9 -81 0
-9 -93 0
-9 -105 0
-9 -117 0
-9 -129 0
-9 -141 0
-9 -153 0
-21 -9 0
-21 -33 0
-21 -45 0
-21 -57 0
-21 -69 0
-21 -81 0
-21 -93 0
-21 -105 0
-21 -117 0
-21 -129 0
-21 -141 0
-21 -153 0
-33 -9 0
-33 -21 0
-33 -45 0
-33 -57 0
-33 -69 0
-33 -81 0
-33 -93 0
-33 -105 0
-33 -117 0
-33 -129 0
-33 -141 0
-33 -153 0
-45 -9 0
-45 -21 0
-45 -33 0
-45 -57 0
-45 -69 0
-45 -81 0
-45 -93 0
-45 -105 0
-45 -117 0
-45 -129 0
-45 -141 0
-45 -153 0
-57 -9 0
-57 -21 0
-57 -33 0
-57 -45 0
-57 -69 0
-57 -81 0
-57 -93 0
-57 -105 0
-57 -117 0
-57 -129 0
-57 -141 0
-57 -153 0
-69 -9 0
-69 -21 0
-69 -33 0
-69 -45 0
-69 -57 0
-69 -81 0
-69 -93 0
-69 -105 0
-69 -117 0
-69 -129 0
-69 -141 0
-69 -153 0
-81 -9 0
-81 -21 0
-81 -33 0
-81 -45 0
-81 -57 0
-81 -69 0
-81 -93 0
-81 -105 0
-81 -117 0
-81 -129 0
-81 -141 0
-81 -153 0
-93 -9 0
-93 -21 0
-93 -33 0
-93 -45 0
-93 -57 0
-93 -69 0
-93 -81 0
-93 -105 0
-93 -117 0
-93 -129 0
-93 -141 0
-93 -153 0
-105 -9 0
-105 -21 0
-105 -33 0
-105 -45 0
-105 -57 0
-105 -69 0
-105 -81 0
-105 -93 0
-105 -117 0
-105 -129 0
-105 -141 0
-105 -153 0
-117 -9 0
-117 -21 0
-117 -33 0
-117 -45 0
-117 -57 0
-117 -69 0
-117 -81 0
-117 -93 0
-117 -105 0
-117 -129 0
-117 -141 0
-117 -153 0
-129 -9 0
-129 -21 0
-129 -33 0
-129 -45 0
-129 -57 0
-129 -69 0
-129 -81 0
-129 -93 0
-129 -105 0
-129 -117 0
-129 -141 0
-129 -153 0
-141 -9 0
-141 -21 0
-141 -33 0
-141 -45 0
-141 -57 0
-141 -69 0
-141 -81 0
-141 -93 0
-141 -105 0
-141 -117 0
-141 -129 0
-141 -153 0
-153 -9 0
-153 -21 0
-153 -33 0
-153 -45 0
-153 -57 0
-153 -69 0
-153 -81 0
-153 -93 0
-153 -105 0
-153 -117 0
-153 -129 0
-153 -141 0
-10 -22 0
-10 -34 0
-10 -46 0
-10 -58 0
-10 -70 0
-10 -82 0
-10 -94 0
-10 -106 0
-10 -118 0
-10 -130 0
-10 -142 0
-10 -154 0
-22 -10 0
-22 -34 0
-22 -46 0
-22 -58 0
-22 -70 0
-22 -82 0
-22 -94 0
-22 -106 0
-22 -118 0
-22 -130 0
-22 -142 0
-22 -154 0
-34 -10 0
-34 -22 0
-34 -46 0
-34 -58 0
-34 -70 0
-34 -82 0
-34 -94 0
-34 -106 0
-34 -118 0
-34 -130 0
-34 -142 0
-34 -154 0
-46 -10 0
-46 -22 0
-46 -34 0
-46 -58 0
-46 -70 0
-46 -82 0
-46 -94 0
-46 -106 0
-46 -118 0
-46 -130 0
-46 -142 0
-46 -154 0
-58 -10 0
-58 -22 0
-58 -34 0
-58 -46 0
-58 -70 0
-58 -82 0
-58 -94 0
-58 -106 0
-58 -118 0
-58 -130 0
-58 -142 0
-58 -154 0
-70 -10 0
-70 -22 0
-70 -34 0
-70 -46 0
-70 -58 0
-70 -82 0
-70 -94 0
-70 -106 0
-70 -118 0
-70 -130 0
-70 -142 0
-70 -154 0
-82 -10 0
-82 -22 0
-82 -34 0
-82 -46 0
-82 -58 0
-82 -70 0
-82 -94 0
-82 -106 0
-82 -118 0
-82 -130 0
-82 -142 0
-82 -154 0
-94 -10 0
-94 -22 0
-94 -34 0
-94 -46 0
-94 -58 0
-94 -70 0
-94 -82 0
-94 -106 0
-94 -118 0
-94 -130 0
-94 -142 0
-94 -154 0
-106 -10 0
-106 -22 0
-106 -34 0
-106 -46 0
-106 -58 0
-106 -70 0
-106 -82 0
-106 -94 0
-106 -118 0
-106 -130 0
-106 -142 0
-106 -154 0
-118 -10 0
-118 -22 0
-118 -34 0
-118 -46 0
-118 -58 0
-118 -70 0
-118 -82 0
-118 -94 0
-118 -106 0
-118 -130 0
-118 -142 0
-118 -154 0
-130 -10 0
-130 -22 0
-130 -34 0
-130 -46 0
-130 -58 0
-130 -70 0
-130 -82 0
-130 -94 0
-130 -106 0
-130 -118 0
-130 -142 0
-130 -154 0
-142 -10 0
-142 -22 0
-142 -34 0
-142 -46 0
-142 -58 0
-142 -70 0
-142 -82 0
-142 -94 0
-142 -106 0
-142 -118 0
-142 -130 0
-142 -154 0
-154 -10 0
-154 -22 0
-154 -34 0
-154 -46 0
-154 -58 0
-154 -70 0
-154 -82 0
-154 -94 0
-154 -106 0
-154 -118 0
-154 -130 0
-154 -142 0
-11 -23 0
-11 -35 0
-11 -47 0
-11 -59 0
-11 -71 0
-11 -83 0
-11 -95 0
-11 -107 0
-11 -119 0
-11 -131 0
-11 -143 0
-11 -155 0
-23 -11 0
-23 -35 0
-23 -47 0
-23 -59 0
-23 -71 0
-23 -83 0
-23 -95 0
-23 -107 0
-23 -119 0
-23 -131 0
-23 -143 0
-23 -155 0
-35 -11 0
-35 -23 0
-35 -47 0
-35 -59 0
-35 -71 0
-35 -83 0
-35 -95 0
-35 -107 0
-35 -119 0
-35 -131 0
-35 -143 0
-35 -155 0
-47 -11 0
-47 -23 0
-47 -35 0
-47 -59 0
-47 -71 0
-47 -83 0
-47 -95 0
-47 -107 0
-47 -119 0
-47 -131 0
-47 -143 0
-47 -155 0
-59 -11 0
-59 -23 0
-59 -35 0
-59 -47 0
-59 -71 0
-59 -83 0
-59 -95 0
-59 -107 0
-59 -119 0
-59 -131 0
-59 -143 0
-59 -155 0
-71 -11 0
-71 -23 0
-71 -35 0
-71 -47 0
-71 -59 0
-71 -83 0
-71 -95 0
-71 -107 0
-71 -119 0
-71 -131 0
-71 -143 0
-71 -155 0
-83 -11 0
-83 -23 0
-83 -35 0
-83 -47 0
-83 -59 0
-83 -71 0
-83 -95 0
-83 -107 0
-83 -119 0
-83 -131 0
-83 -143 0
-83 -155 0
-95 -11 0
-95 -23 0
-95 -35 0
-95 -47 0
-95 -59 0
-95 -71 0
-95 -83 0
-95 -107 0
-95 -119 0
-95 -131 0
-95 -143 0
-95 -155 0
-107 -11 0
-107 -23 0
-107 -35 0
-107 -47 0
-107 -59 0
-107 -71 0
-107 -83 0
-107 -95 0
-107 -119 0
-107 -131 0
-107 -143 0
-107 -155 0
-119 -11 0
-119 -23 0
-119 -35 0
-119 -47 0
-119 -59 0
-119 -71 0
-119 -83 0
-119 -95 0
-119 -107 0
-119 -131 0
-119 -143 0
-119 -155 0
-131 -11 0
-131 -23 0
-131 -35 0
-131 -47 0
-131 -59 0
-131 -71 0
-131 -83 0
-131 -95 0
-131 -107 0
-131 -119 0
-131 -143 0
-131 -155 0
-143 -11 0
-143 -23 0
-143 -35 0
-143 -47 0
-143 -59 0
-143 -71 0
-143 -83 0
-143 -95 0
-143 -107 0
-143 -119 0
-143 -131 0
-143 -155 0
-155 -11 0
-155 -23 0
-155 -35 0
-155 -47 0
-155 -59 0
-155 -71 0
-155 -83 0
-155 -95 0
-155 -107 0
-155 -119 0
-155 -131 0
-155 -143 0
-12 -24 0
-12 -36 0
-12 -48 0
-12 -60 0
-12 -72 0
-12 -84 0
-12 -96 0
-12 -108 0
-12 -120 0
-12 -132 0
-12 -144 0
-12 -156 0
-24 -12 0
-24 -36 0
-24 -48 0
-24 -60 0
-24 -72 0
-24 -84 0
-24 -96 0
-24 -108 0
-24 -120 0
-24 -132 0
-24 -144 0
-24 -156 0
-36 -12 0
-36 -24 0
-36 -48 0
-36 -60 0
-36 -72 0
-36 -84 0
-36 -96 0
-36 -108 0
-36 -120 0
-36 -132 0
-36 -144 0
-36 -156 0
-48 -12 0
-48 -24 0
-48 -36 0
-48 -60 0
-48 -72 0
-48 -84 0
-48 -96 0
-48 -108 0
-48 -120 0
-48 -132 0
-48 -144 0
-48 -156 0
-60 -12 0
-60 -24 0
-60 -36 0
-60 -48 0
-60 -72 0
-60 -84 0
-60 -96 0
-60 -108 0
-60 -120 0
-60 -132 0
-60 -144 0
-60 -156 0
-72 -12 0
-72 -24 0
-72 -36 0
-72 -48 0
-72 -60 0
-72 -84 0
-72 -96 0
-72 -108 0
-72 -120 0
-72 -132 0
-72 -144 0
-72 -156 0
-84 -12 0
-84 -24 0
-84 -36 0
-84 -48 0
-84 -60 0
-84 -72 0
-84 -96 0
-84 -108 0
-84 -120 0
-84 -132 0
-84 -144 0
-84 -156 0
-96 -12 0
-96 -24 0
-96 -36 0
-96 -48 0
-96 -60 0
-96 -72 0
-96 -84 0
-96 -108 0
-96 -120 0
-96 -132 0
-96 -144 0
-96 -156 0
-108 -12 0
-108 -24 0
-108 -36 0
-108 -48 0
-108 -60 0
-108 -72 0
-108 -84 0
-108 -96 0
-108 -120 0
-108 -132 0
-108 -144 0
-108 -156 0
-120 -12 0
-120 -24 0
-120 -36 0
-120 -48 0
-120 -60 0
-120 -72 0
-120 -84 0
-120 -96 0
-120 -108 0
-120 -132 0
-120 -144 0
-120 -156 0
-132 -12 0
-132 -24 0
-132 -36 0
-132 -48 0
-132 -60 0
-132 -72 0
-132 -84 0
-132 -96 0
-132 -108 0
-132 -120 0
-132 -144 0
-132 -156 0
-144 -12 0
-144 -24 0
-144 -36 0
-144 -48 0
-144 -60 0
-144 -72 0
-144 -84 0
-144 -96 0
-144 -108 0
-144 -120 0
-144 -132 0
-144 -156 0
-156 -12 0
-156 -24 0
-156 -36 0
-156 -48 0
-156 -60 0
-156 -72 0
-156 -84 0
-156 -96 0
-156 -108 0
-156 -120 0
-156 -132 0
-156 -144 0